c SAT problem
p wcnf 48 149
1 -60 -75 0
1 75 -3150 0
1 -90 3075 0
1 -90 -105 0
1 -90 3150 0
1 90 -3090 0
1 -90 -3060 0
1 -105 3105 0
1 -105 3060 0
1 3120 -135 0
1 -3120 -105 0
1 -3120 181 0
1 3120 -90 0
1 -3135 196 0
1 3135 105 0
1 -3135 75 0
1 3135 -3120 0
1 -3135 150 0
1 -3135 60 0
1 -3150 196 0
1 3150 105 0
1 -3150 121 0
1 3150 -90 0
1 3165 196 0
1 -3165 -166 0
1 3165 -181 0
1 120 -3120 0
1 -120 -121 0
1 120 -3135 0
1 -150 -3105 0
1 -150 3045 0
1 150 -3060 0
1 165 3120 0
1 -165 -150 0
1 165 -3000 0
1 3060 -225 0
1 -3060 135 0
1 3060 240 0
1 -3060 210 0
1 3060 -255 0
1 -3075 135 0
1 3075 105 0
1 -3075 240 0
1 -3075 210 0
1 -3075 -150 0
1 -3075 -120 0
1 3075 -255 0
1 -3090 -181 0
1 3090 150 0
1 -3090 -120 0
1 -3090 -90 0
1 -3090 255 0
1 -3105 -226 0
1 3105 -196 0
1 3105 105 0
1 3105 -211 0
1 -3105 150 0
1 -3105 -255 0
1 -195 -3045 0
1 -195 -180 0
1 210 225 0
1 210 3045 0
1 210 -3015 0
1 -210 3000 0
1 -225 3075 0
1 -3000 210 0
1 3000 180 0
1 3030 3045 0
1 -3030 240 0
1 3030 -210 0
1 -3030 180 0
1 -3045 225 0
1 3045 270 0
1 3045 210 0
1 -3045 -180 0
1 -3045 -150 0
1 -3045 -285 0
1 121 136 0
1 121 -3150 0
1 -136 3150 0
1 -136 -3255 0
1 151 -166 0
1 -151 3240 0
1 151 3150 0
1 -151 -3285 0
1 151 3165 0
1 166 3255 0
1 -166 -165 0
1 166 -3180 0
1 -166 3150 0
1 -166 3195 0
1 -3240 -181 0
1 -3240 121 0
1 3255 -226 0
1 3255 -166 0
1 3255 -181 0
1 3255 -121 0
1 3270 166 0
1 3270 -121 0
1 -3285 -136 0
1 -3285 -151 0
1 181 3240 0
1 181 -3180 0
1 -181 -3150 0
1 -181 -3090 0
1 181 3255 0
1 -181 -3225 0
1 -181 -3135 0
1 -196 3180 0
1 196 -3150 0
1 -196 -3225 0
1 -196 -3135 0
1 -211 3240 0
1 -211 3121 0
1 211 -3090 0
1 211 -3225 0
1 226 -3136 0
1 226 3210 0
1 -226 -3166 0
1 3180 -226 0
1 -3180 151 0
1 -3180 -285 0
1 3195 -166 0
1 -3195 -240 0
1 3195 -211 0
1 -3195 181 0
1 3210 -196 0
1 3210 211 0
1 -240 3075 0
1 -240 3121 0
1 240 3060 0
1 240 3195 0
1 -255 3136 0
1 255 3075 0
1 -255 3151 0
1 255 3090 0
1 255 3030 0
1 255 3195 0
1 -270 -3151 0
1 -285 3136 0
1 285 -3180 0
1 285 270 0
1 285 -3166 0
1 -3121 270 0
1 -3121 -255 0
1 3136 211 0
1 3136 -3135 0
1 -3151 -211 0
1 -3166 -240 0
